check/instances/MINLP/ex1224.col
x1
x2
x3
b4
b5
b6
b7
b8
b9
b10
b11
